c Generated map
c Size: 9 * 9, weights in range: 1 to 10, walls: False, with ratio 0.0
c dim 6 of 7
c
p sp 81 144
c graph contains 81 nodes and 144 arcs
c
a 1 10 5
a 10 1 5
a 1 2 6
a 2 1 6
a 2 11 3
a 11 2 3
a 2 3 2
a 3 2 2
a 3 12 3
a 12 3 3
a 3 4 1
a 4 3 1
a 4 13 10
a 13 4 10
a 4 5 1
a 5 4 1
a 5 14 4
a 14 5 4
a 5 6 7
a 6 5 7
a 6 15 7
a 15 6 7
a 6 7 4
a 7 6 4
a 7 16 2
a 16 7 2
a 7 8 9
a 8 7 9
a 8 17 10
a 17 8 10
a 8 9 7
a 9 8 7
a 9 18 10
a 18 9 10
a 10 19 6
a 19 10 6
a 10 11 5
a 11 10 5
a 11 20 4
a 20 11 4
a 11 12 3
a 12 11 3
a 12 21 6
a 21 12 6
a 12 13 7
a 13 12 7
a 13 22 2
a 22 13 2
a 13 14 4
a 14 13 4
a 14 23 5
a 23 14 5
a 14 15 7
a 15 14 7
a 15 24 8
a 24 15 8
a 15 16 7
a 16 15 7
a 16 25 7
a 25 16 7
a 16 17 1
a 17 16 1
a 17 26 9
a 26 17 9
a 17 18 10
a 18 17 10
a 18 27 1
a 27 18 1
a 19 28 1
a 28 19 1
a 19 20 3
a 20 19 3
a 20 29 8
a 29 20 8
a 20 21 9
a 21 20 9
a 21 30 2
a 30 21 2
a 21 22 8
a 22 21 8
a 22 31 10
a 31 22 10
a 22 23 4
a 23 22 4
a 23 32 7
a 32 23 7
a 23 24 8
a 24 23 8
a 24 33 9
a 33 24 9
a 24 25 9
a 25 24 9
a 25 34 9
a 34 25 9
a 25 26 1
a 26 25 1
a 26 35 7
a 35 26 7
a 26 27 9
a 27 26 9
a 27 36 7
a 36 27 7
a 28 37 6
a 37 28 6
a 28 29 4
a 29 28 4
a 29 38 3
a 38 29 3
a 29 30 10
a 30 29 10
a 30 39 2
a 39 30 2
a 30 31 6
a 31 30 6
a 31 40 1
a 40 31 1
a 31 32 10
a 32 31 10
a 32 41 3
a 41 32 3
a 32 33 2
a 33 32 2
a 33 42 7
a 42 33 7
a 33 34 10
a 34 33 10
a 34 43 4
a 43 34 4
a 34 35 8
a 35 34 8
a 35 44 5
a 44 35 5
a 35 36 8
a 36 35 8
a 36 45 7
a 45 36 7
a 37 46 10
a 46 37 10
a 37 38 9
a 38 37 9
a 38 47 2
a 47 38 2
a 38 39 5
a 39 38 5
a 39 48 6
a 48 39 6
a 39 40 9
a 40 39 9
a 40 49 3
a 49 40 3
a 40 41 6
a 41 40 6
a 41 50 4
a 50 41 4
a 41 42 10
a 42 41 10
a 42 51 8
a 51 42 8
a 42 43 6
a 43 42 6
a 43 52 10
a 52 43 10
a 43 44 6
a 44 43 6
a 44 53 10
a 53 44 10
a 44 45 10
a 45 44 10
a 45 54 4
a 54 45 4
a 46 55 7
a 55 46 7
a 46 47 6
a 47 46 6
a 47 56 6
a 56 47 6
a 47 48 7
a 48 47 7
a 48 57 7
a 57 48 7
a 48 49 7
a 49 48 7
a 49 58 9
a 58 49 9
a 49 50 8
a 50 49 8
a 50 59 1
a 59 50 1
a 50 51 8
a 51 50 8
a 51 60 1
a 60 51 1
a 51 52 7
a 52 51 7
a 52 61 6
a 61 52 6
a 52 53 8
a 53 52 8
a 53 62 2
a 62 53 2
a 53 54 9
a 54 53 9
a 54 63 2
a 63 54 2
a 55 64 2
a 64 55 2
a 55 56 4
a 56 55 4
a 56 65 1
a 65 56 1
a 56 57 3
a 57 56 3
a 57 66 7
a 66 57 7
a 57 58 2
a 58 57 2
a 58 67 4
a 67 58 4
a 58 59 5
a 59 58 5
a 59 68 9
a 68 59 9
a 59 60 10
a 60 59 10
a 60 69 5
a 69 60 5
a 60 61 6
a 61 60 6
a 61 70 2
a 70 61 2
a 61 62 10
a 62 61 10
a 62 71 2
a 71 62 2
a 62 63 5
a 63 62 5
a 63 72 8
a 72 63 8
a 64 73 7
a 73 64 7
a 64 65 1
a 65 64 1
a 65 74 9
a 74 65 9
a 65 66 3
a 66 65 3
a 66 75 8
a 75 66 8
a 66 67 7
a 67 66 7
a 67 76 3
a 76 67 3
a 67 68 8
a 68 67 8
a 68 77 3
a 77 68 3
a 68 69 7
a 69 68 7
a 69 78 1
a 78 69 1
a 69 70 3
a 70 69 3
a 70 79 2
a 79 70 2
a 70 71 3
a 71 70 3
a 71 80 9
a 80 71 9
a 71 72 10
a 72 71 10
a 72 81 1
a 81 72 1
a 73 74 2
a 74 73 2
a 74 75 10
a 75 74 10
a 75 76 1
a 76 75 1
a 76 77 5
a 77 76 5
a 77 78 1
a 78 77 1
a 78 79 7
a 79 78 7
a 79 80 8
a 80 79 8
a 80 81 6
a 81 80 6
